analyze/results_flowersnark/final_miplib_symretope_if_extended_generating_set_cpx_v802__settings_final_nosym_norestarts__4__square31.mps.gz.sol
solution status: optimal solution found
objective value:                                   15
x_1_1_13                                            1 	(obj:1)
x_1_14_8                                            1 	(obj:1)
x_1_22_4                                            1 	(obj:1)
x_1_26_6                                            1 	(obj:1)
x_5_22_4                                            1 	(obj:1)
x_7_26_4                                            1 	(obj:1)
x_7_30_2                                            1 	(obj:1)
x_9_14_5                                            1 	(obj:1)
x_9_19_5                                            1 	(obj:1)
x_9_24_2                                            1 	(obj:1)
x_9_30_2                                            1 	(obj:1)
x_11_24_8                                           1 	(obj:1)
x_14_1_18                                           1 	(obj:1)
x_14_19_5                                           1 	(obj:1)
x_19_19_13                                          1 	(obj:1)
y_18                                                1 	(obj:0)
y_13                                                2 	(obj:0)
y_8                                                 2 	(obj:0)
y_6                                                 1 	(obj:0)
y_5                                                 3 	(obj:0)
y_4                                                 3 	(obj:0)
y_2                                                 3 	(obj:0)
